c Generated map
c Size: 8 * 8, weights in range: 1 to 10, walls: True, with ratio 0.1
c dim 9 of 9
c
p sp 64 92
c graph contains 64 nodes and 92 arcs
c
a 1 9 3
a 9 1 3
a 1 2 5
a 2 1 5
a 2 10 7
a 10 2 7
a 5 13 3
a 13 5 3
a 5 6 5
a 6 5 5
a 6 7 6
a 7 6 6
a 7 15 2
a 15 7 2
a 7 8 1
a 8 7 1
a 8 16 3
a 16 8 3
a 9 17 8
a 17 9 8
a 9 10 9
a 10 9 9
a 10 18 9
a 18 10 9
a 10 11 7
a 11 10 7
a 11 19 1
a 19 11 1
a 11 12 7
a 12 11 7
a 12 20 10
a 20 12 10
a 12 13 9
a 13 12 9
a 13 21 2
a 21 13 2
a 15 23 7
a 23 15 7
a 15 16 10
a 16 15 10
a 16 24 8
a 24 16 8
a 17 25 1
a 25 17 1
a 17 18 5
a 18 17 5
a 18 26 4
a 26 18 4
a 18 19 5
a 19 18 5
a 19 27 2
a 27 19 2
a 19 20 4
a 20 19 4
a 20 28 6
a 28 20 6
a 20 21 8
a 21 20 8
a 21 29 4
a 29 21 4
a 21 22 4
a 22 21 4
a 22 23 10
a 23 22 10
a 23 31 1
a 31 23 1
a 23 24 10
a 24 23 10
a 24 32 6
a 32 24 6
a 25 33 6
a 33 25 6
a 25 26 9
a 26 25 9
a 26 34 9
a 34 26 9
a 26 27 4
a 27 26 4
a 27 35 2
a 35 27 2
a 27 28 6
a 28 27 6
a 28 36 8
a 36 28 8
a 28 29 4
a 29 28 4
a 29 37 7
a 37 29 7
a 31 39 1
a 39 31 1
a 31 32 5
a 32 31 5
a 32 40 10
a 40 32 10
a 33 41 5
a 41 33 5
a 33 34 5
a 34 33 5
a 34 42 1
a 42 34 1
a 34 35 7
a 35 34 7
a 35 43 6
a 43 35 6
a 35 36 4
a 36 35 4
a 36 44 10
a 44 36 10
a 36 37 3
a 37 36 3
a 37 38 8
a 38 37 8
a 38 46 8
a 46 38 8
a 38 39 4
a 39 38 4
a 39 47 10
a 47 39 10
a 39 40 2
a 40 39 2
a 40 48 4
a 48 40 4
a 41 49 10
a 49 41 10
a 41 42 2
a 42 41 2
a 42 50 6
a 50 42 6
a 42 43 4
a 43 42 4
a 43 51 10
a 51 43 10
a 43 44 1
a 44 43 1
a 44 52 9
a 52 44 9
a 46 54 4
a 54 46 4
a 46 47 5
a 47 46 5
a 47 55 8
a 55 47 8
a 47 48 2
a 48 47 2
a 49 57 2
a 57 49 2
a 49 50 1
a 50 49 1
a 50 58 2
a 58 50 2
a 50 51 8
a 51 50 8
a 51 59 6
a 59 51 6
a 51 52 1
a 52 51 1
a 52 60 8
a 60 52 8
a 52 53 1
a 53 52 1
a 53 61 8
a 61 53 8
a 53 54 3
a 54 53 3
a 54 62 6
a 62 54 6
a 54 55 2
a 55 54 2
a 55 63 8
a 63 55 8
a 57 58 5
a 58 57 5
a 58 59 9
a 59 58 9
a 59 60 1
a 60 59 1
a 60 61 10
a 61 60 10
a 61 62 10
a 62 61 10
a 62 63 10
a 63 62 10
a 63 64 5
a 64 63 5
